workspace_BA/ba-solver/src/main/resources/input_graphs/reference_set_c2/watts_strog_n_40_k_8_p_0.7_0.gr
p td 40 160
0 1
0 4
0 27
0 39
0 10
0 22
0 23
1 38
1 37
1 9
1 2
1 16
1 29
1 36
1 14
2 4
2 38
2 24
2 32
2 13
2 10
2 18
3 21
3 12
3 14
3 9
3 35
3 4
4 5
4 7
4 31
4 20
4 19
4 29
5 8
5 19
5 15
5 14
6 7
6 8
6 9
6 25
6 26
6 17
7 8
7 10
7 33
7 30
8 11
8 38
8 28
8 17
8 16
8 29
8 36
8 20
8 33
9 10
9 25
9 30
9 18
9 12
9 24
9 28
10 11
10 12
10 18
10 33
10 20
10 21
10 14
11 14
11 35
11 38
11 18
11 32
11 16
12 15
12 28
12 18
12 30
12 23
13 28
13 14
13 27
14 15
14 35
14 19
14 26
14 32
15 30
15 24
15 26
15 16
15 27
16 20
16 39
16 24
16 27
17 20
17 24
17 26
17 28
18 22
18 31
18 33
18 32
19 23
19 33
19 26
19 25
19 36
20 21
20 39
20 37
20 35
21 22
21 24
21 32
21 23
21 34
22 24
22 27
22 34
22 37
23 24
23 25
23 28
23 37
24 26
24 27
24 38
24 39
24 29
25 29
25 32
25 37
26 33
26 35
27 29
27 30
27 36
28 30
28 38
29 30
29 39
30 31
30 34
31 35
31 36
32 33
33 35
33 34
33 36
34 35
35 36
35 37
35 38
37 38
37 39
